750
[81,84,86,90,102,112,114,122,141,146,149,152,157,163,174,176,177,185,189,191,196,197,198,201,208,228,230,236,239,241,242,245,247,251,256,265,271,276,277,283,286,288,292,299,309,313,316,320,325,337,347,355,363,364,369,373,375,384,395,396,400,401,405,407,408,422,424,441,444,450,451,461,463,465,469,474,484,487,490,491,493,496,498,505,513,515,517,521,522,523,524]
[1,2,1,2,1,1,1,1,1,1,1,1,1,1,1,1,1,1,1,2,1,1,1,1,1,1,1,1,1,1,1,1,1,1,1,1,1,1,1,1,1,1,1,1,1,1,1,1,1,1,1,1,1,1,1,1,1,1,1,1,2,1,1,1,1,1,1,1,1,1,1,1,1,1,1,1,2,1,3,1,1,1,1,2,1,1,1,1,2,1,1]
